p tw 20 53
0 1
0 12
0 10
0 18
1 12
1 15
1 19
1 17
2 3
2 9
2 7
2 17
2 14
2 19
3 9
3 15
3 16
3 4
4 5
4 17
4 10
4 7
5 8
5 16
6 7
6 10
6 9
6 8
6 18
6 15
6 13
7 8
7 11
7 10
7 14
7 17
8 9
8 11
8 10
9 10
9 16
9 17
9 15
9 18
10 12
10 13
11 18
11 19
12 15
13 14
13 15
13 16
15 17
